30
0   1   1
1   2   1
2   2   2
3   2   2
4   1   1
5   2   1
6   2   2
7   1   2
8   2   1
9   1   2
10   1   1
11   1   1
12   2   1
13   2   1
14   1   2
15   2   1
16   2   1
17   1   2
18   2   1
19   2   1
20   1   2
21   1   2
22   2   1
23   2   2
24   2   2
25   1   2
26   1   2
27   2   1
28   2   2
29   1   2
100
